Mack/Bortfeldt(2008)
Bin-Packing-Problem
BP-RG/SBSBPP/SSSCSP
Testcase-ID	1
Problem-ID	15
no_item_types	5
no_items	1109
CONTAINER_DATA (l,w,h)	587	233	220
ITEMS_DATA:
Type	x	y	z	no_items
1	100	80	72	215
2	87	77	43	245
3	88	54	39	204
4	94	54	36	228
5	83	40	36	217
